c FILE /home/rafael/Documents/HappySet/MIHS/inputs/happygen/output/graph_scale_free_k7_p0.3_v100_20241127_083858.txt
c SOURCE This is a scale-free graph formed for the happy graph colouring problem.
c DESCRIPTION It was generated using the problem generator of Rhyd Lewis
c
c GRAPH STATS
c Seed                             = 1527800277
c Number of Nodes                  = 100
c Number of colours k              = 7
c Number of pre-assignments        = 30
c Number of links per new node     = 5
c Density                          = 0.0979798
c 
c The degrees of nodes 1 to 100, respectively, are as follows 
c [41, 34, 30, 29, 25, 24, 24, 24, 23, 21, 17, 16, 16, 16, 14, 14, 14, 13, 13, 13, 13, 12, 11, 11, 11, 11, 
c  10, 10, 10, 10, 10, 9, 9, 9, 9, 9, 9, 9, 9, 8, 8, 8, 8, 8, 8, 7, 7, 7, 7, 7, 7, 
c  7, 6, 6, 6, 6, 6, 6, 6, 6, 6, 6, 6, 6, 6, 6, 6, 6, 6, 6, 6, 6, 6, 5, 5, 5, 
c  5, 5, 5, 5, 5, 5, 5, 5, 5, 5, 5, 5, 5, 5, 5, 5, 5, 5, 5, 5, 5, 5, 5, 5] 
c  
p edge 100 485 7
e 1 2
e 1 3
e 1 4
e 1 5
e 1 6
e 1 7
e 1 9
e 1 10
e 1 11
e 1 12
e 1 15
e 1 18
e 1 19
e 1 20
e 1 21
e 1 23
e 1 25
e 1 27
e 1 31
e 1 32
e 1 33
e 1 34
e 1 36
e 1 39
e 1 40
e 1 41
e 1 42
e 1 43
e 1 52
e 1 54
e 1 56
e 1 57
e 1 59
e 1 62
e 1 63
e 1 64
e 1 83
e 1 88
e 1 89
e 1 97
e 1 99
e 2 3
e 2 4
e 2 5
e 2 6
e 2 7
e 2 8
e 2 9
e 2 11
e 2 13
e 2 14
e 2 15
e 2 19
e 2 20
e 2 23
e 2 25
e 2 26
e 2 28
e 2 29
e 2 30
e 2 31
e 2 33
e 2 39
e 2 41
e 2 44
e 2 52
e 2 53
e 2 54
e 2 56
e 2 74
e 2 76
e 2 79
e 2 86
e 2 87
e 3 5
e 3 6
e 3 7
e 3 8
e 3 9
e 3 11
e 3 13
e 3 18
e 3 19
e 3 20
e 3 22
e 3 24
e 3 25
e 3 28
e 3 32
e 3 40
e 3 48
e 3 57
e 3 65
e 3 69
e 3 71
e 3 74
e 3 75
e 3 80
e 3 90
e 3 93
e 3 97
e 3 100
e 4 5
e 4 7
e 4 9
e 4 10
e 4 12
e 4 17
e 4 18
e 4 19
e 4 23
e 4 25
e 4 30
e 4 36
e 4 42
e 4 43
e 4 50
e 4 52
e 4 54
e 4 55
e 4 57
e 4 58
e 4 59
e 4 60
e 4 65
e 4 70
e 4 84
e 4 91
e 4 96
e 5 7
e 5 9
e 5 12
e 5 14
e 5 15
e 5 23
e 5 24
e 5 30
e 5 32
e 5 33
e 5 34
e 5 38
e 5 39
e 5 43
e 5 44
e 5 50
e 5 54
e 5 66
e 5 77
e 5 85
e 5 88
e 6 7
e 6 8
e 6 9
e 6 10
e 6 11
e 6 15
e 6 16
e 6 18
e 6 27
e 6 31
e 6 34
e 6 37
e 6 52
e 6 70
e 6 72
e 6 76
e 6 80
e 6 87
e 6 90
e 6 93
e 6 96
e 7 8
e 7 9
e 7 10
e 7 11
e 7 16
e 7 27
e 7 28
e 7 32
e 7 38
e 7 50
e 7 56
e 7 63
e 7 68
e 7 75
e 7 77
e 7 81
e 7 85
e 7 100
e 8 9
e 8 14
e 8 18
e 8 28
e 8 32
e 8 34
e 8 35
e 8 37
e 8 40
e 8 43
e 8 46
e 8 49
e 8 53
e 8 55
e 8 64
e 8 80
e 8 84
e 8 86
e 8 92
e 8 95
e 9 10
e 9 12
e 9 15
e 9 23
e 9 30
e 9 34
e 9 39
e 9 46
e 9 49
e 9 62
e 9 63
e 9 69
e 9 74
e 9 89
e 9 92
e 10 13
e 10 14
e 10 17
e 10 29
e 10 35
e 10 36
e 10 51
e 10 53
e 10 54
e 10 55
e 10 71
e 10 77
e 10 82
e 10 87
e 10 91
e 10 98
e 11 14
e 11 16
e 11 26
e 11 41
e 11 44
e 11 60
e 11 61
e 11 73
e 11 81
e 11 88
e 11 94
e 11 97
e 12 13
e 12 16
e 12 17
e 12 23
e 12 29
e 12 35
e 12 37
e 12 48
e 12 53
e 12 55
e 12 96
e 12 99
e 13 18
e 13 42
e 13 44
e 13 45
e 13 46
e 13 48
e 13 55
e 13 65
e 13 74
e 13 76
e 13 85
e 13 96
e 14 26
e 14 35
e 14 36
e 14 38
e 14 42
e 14 46
e 14 71
e 14 73
e 14 83
e 14 84
e 14 100
e 15 21
e 15 30
e 15 33
e 15 41
e 15 58
e 15 59
e 15 66
e 15 78
e 15 86
e 16 27
e 16 44
e 16 56
e 16 60
e 16 68
e 16 71
e 16 78
e 16 81
e 16 82
e 16 94
e 17 29
e 17 34
e 17 41
e 17 48
e 17 50
e 17 52
e 17 62
e 17 63
e 17 65
e 17 69
e 17 97
e 18 19
e 18 28
e 18 33
e 18 41
e 18 51
e 18 62
e 18 82
e 19 24
e 19 27
e 19 37
e 19 53
e 19 62
e 19 63
e 19 72
e 19 100
e 20 32
e 20 33
e 20 39
e 20 49
e 20 60
e 20 61
e 20 64
e 20 78
e 20 90
e 20 98
e 21 32
e 21 45
e 21 46
e 21 50
e 21 57
e 21 61
e 21 65
e 21 67
e 21 69
e 21 82
e 21 86
e 22 28
e 22 30
e 22 35
e 22 56
e 22 61
e 22 67
e 22 75
e 22 85
e 22 90
e 22 92
e 22 94
e 23 31
e 23 40
e 23 45
e 23 94
e 23 99
e 24 25
e 24 26
e 24 40
e 24 47
e 24 55
e 24 61
e 24 78
e 24 81
e 25 35
e 25 58
e 25 70
e 25 75
e 25 77
e 25 95
e 26 27
e 26 43
e 26 47
e 26 58
e 26 67
e 26 79
e 26 99
e 27 34
e 27 37
e 27 45
e 27 57
e 28 49
e 28 68
e 28 80
e 28 87
e 29 38
e 29 54
e 29 58
e 29 72
e 29 79
e 29 81
e 30 56
e 30 84
e 30 90
e 30 91
e 31 51
e 31 62
e 31 66
e 31 68
e 31 73
e 31 75
e 32 59
e 32 95
e 33 69
e 33 77
e 33 91
e 34 36
e 34 40
e 35 57
e 35 76
e 35 88
e 36 38
e 36 48
e 36 59
e 36 99
e 37 46
e 37 47
e 37 64
e 37 88
e 38 60
e 38 68
e 38 70
e 38 79
e 39 51
e 39 80
e 39 84
e 39 89
e 40 49
e 40 67
e 41 42
e 41 76
e 42 45
e 42 66
e 42 87
e 43 72
e 43 94
e 43 95
e 44 83
e 44 89
e 44 98
e 45 67
e 45 72
e 45 73
e 46 47
e 47 58
e 47 73
e 47 93
e 48 66
e 48 79
e 49 92
e 49 98
e 50 64
e 50 83
e 51 63
e 51 70
e 51 91
e 52 86
e 52 95
e 53 78
e 59 82
e 60 100
e 61 83
e 64 74
e 65 98
e 66 71
e 67 89
e 68 92
e 69 85
e 70 93
e 71 93
e 72 97
e 73 96
n 15 1
n 19 5
n 23 2
n 27 5
n 29 2
n 30 1
n 31 2
n 33 1
n 35 7
n 41 1
n 46 7
n 49 2
n 50 3
n 52 7
n 53 5
n 63 5
n 67 4
n 69 1
n 70 6
n 71 7
n 75 2
n 77 1
n 79 2
n 80 1
n 88 7
n 89 4
n 90 1
n 96 5
n 97 1
n 98 2
